generated by phonopy
1.0
     10.72096228234967      0.00000000000000      0.00000000000000
      0.00000000000000     10.72096228234967      0.00000000000000
      0.00000000000000      0.00000000000000     10.72096228234967
  C
  216
Direct
      0.00000000000000      0.00000000000000      0.00000000000000
      0.33333333333333      0.00000000000000      0.00000000000000
      0.66666666666667      0.00000000000000      0.00000000000000
      0.00000000000000      0.33333333333333      0.00000000000000
      0.33333333333333      0.33333333333333      0.00000000000000
      0.66666666666667      0.33333333333333      0.00000000000000
      0.00000000000000      0.66666666666667      0.00000000000000
      0.33333333333333      0.66666666666667      0.00000000000000
      0.66666666666667      0.66666666666667      0.00000000000000
      0.00000000000000      0.00000000000000      0.33333333333333
      0.33333333333333      0.00000000000000      0.33333333333333
      0.66666666666667      0.00000000000000      0.33333333333333
      0.00000000000000      0.33333333333333      0.33333333333333
      0.33333333333333      0.33333333333333      0.33333333333333
      0.66666666666667      0.33333333333333      0.33333333333333
      0.00000000000000      0.66666666666667      0.33333333333333
      0.33333333333333      0.66666666666667      0.33333333333333
      0.66666666666667      0.66666666666667      0.33333333333333
      0.00000000000000      0.00000000000000      0.66666666666667
      0.33333333333333      0.00000000000000      0.66666666666667
      0.66666666666667      0.00000000000000      0.66666666666667
      0.00000000000000      0.33333333333333      0.66666666666667
      0.33333333333333      0.33333333333333      0.66666666666667
      0.66666666666667      0.33333333333333      0.66666666666667
      0.00000000000000      0.66666666666667      0.66666666666667
      0.33333333333333      0.66666666666667      0.66666666666667
      0.66666666666667      0.66666666666667      0.66666666666667
      0.00000000000000      0.16666666666667      0.16666666666667
      0.33333333333333      0.16666666666667      0.16666666666667
      0.66666666666667      0.16666666666667      0.16666666666667
      0.00000000000000      0.50000000000000      0.16666666666667
      0.33333333333333      0.50000000000000      0.16666666666667
      0.66666666666667      0.50000000000000      0.16666666666667
      0.00000000000000      0.83333333333333      0.16666666666667
      0.33333333333333      0.83333333333333      0.16666666666667
      0.66666666666667      0.83333333333333      0.16666666666667
      0.00000000000000      0.16666666666667      0.50000000000000
      0.33333333333333      0.16666666666667      0.50000000000000
      0.66666666666667      0.16666666666667      0.50000000000000
      0.00000000000000      0.50000000000000      0.50000000000000
      0.33333333333333      0.50000000000000      0.50000000000000
      0.66666666666667      0.50000000000000      0.50000000000000
      0.00000000000000      0.83333333333333      0.50000000000000
      0.33333333333333      0.83333333333333      0.50000000000000
      0.66666666666667      0.83333333333333      0.50000000000000
      0.00000000000000      0.16666666666667      0.83333333333333
      0.33333333333333      0.16666666666667      0.83333333333333
      0.66666666666667      0.16666666666667      0.83333333333333
      0.00000000000000      0.50000000000000      0.83333333333333
      0.33333333333333      0.50000000000000      0.83333333333333
      0.66666666666667      0.50000000000000      0.83333333333333
      0.00000000000000      0.83333333333333      0.83333333333333
      0.33333333333333      0.83333333333333      0.83333333333333
      0.66666666666667      0.83333333333333      0.83333333333333
      0.16666666666667      0.16666666666667      0.00000000000000
      0.50000000000000      0.16666666666667      0.00000000000000
      0.83333333333333      0.16666666666667      0.00000000000000
      0.16666666666667      0.50000000000000      0.00000000000000
      0.50000000000000      0.50000000000000      0.00000000000000
      0.83333333333333      0.50000000000000      0.00000000000000
      0.16666666666667      0.83333333333333      0.00000000000000
      0.50000000000000      0.83333333333333      0.00000000000000
      0.83333333333333      0.83333333333333      0.00000000000000
      0.16666666666667      0.16666666666667      0.33333333333333
      0.50000000000000      0.16666666666667      0.33333333333333
      0.83333333333333      0.16666666666667      0.33333333333333
      0.16666666666667      0.50000000000000      0.33333333333333
      0.50000000000000      0.50000000000000      0.33333333333333
      0.83333333333333      0.50000000000000      0.33333333333333
      0.16666666666667      0.83333333333333      0.33333333333333
      0.50000000000000      0.83333333333333      0.33333333333333
      0.83333333333333      0.83333333333333      0.33333333333333
      0.16666666666667      0.16666666666667      0.66666666666667
      0.50000000000000      0.16666666666667      0.66666666666667
      0.83333333333333      0.16666666666667      0.66666666666667
      0.16666666666667      0.50000000000000      0.66666666666667
      0.50000000000000      0.50000000000000      0.66666666666667
      0.83333333333333      0.50000000000000      0.66666666666667
      0.16666666666667      0.83333333333333      0.66666666666667
      0.50000000000000      0.83333333333333      0.66666666666667
      0.83333333333333      0.83333333333333      0.66666666666667
      0.16666666666667      0.00000000000000      0.16666666666667
      0.50000000000000      0.00000000000000      0.16666666666667
      0.83333333333333      0.00000000000000      0.16666666666667
      0.16666666666667      0.33333333333333      0.16666666666667
      0.50000000000000      0.33333333333333      0.16666666666667
      0.83333333333333      0.33333333333333      0.16666666666667
      0.16666666666667      0.66666666666667      0.16666666666667
      0.50000000000000      0.66666666666667      0.16666666666667
      0.83333333333333      0.66666666666667      0.16666666666667
      0.16666666666667      0.00000000000000      0.50000000000000
      0.50000000000000      0.00000000000000      0.50000000000000
      0.83333333333333      0.00000000000000      0.50000000000000
      0.16666666666667      0.33333333333333      0.50000000000000
      0.50000000000000      0.33333333333333      0.50000000000000
      0.83333333333333      0.33333333333333      0.50000000000000
      0.16666666666667      0.66666666666667      0.50000000000000
      0.50000000000000      0.66666666666667      0.50000000000000
      0.83333333333333      0.66666666666667      0.50000000000000
      0.16666666666667      0.00000000000000      0.83333333333333
      0.50000000000000      0.00000000000000      0.83333333333333
      0.83333333333333      0.00000000000000      0.83333333333333
      0.16666666666667      0.33333333333333      0.83333333333333
      0.50000000000000      0.33333333333333      0.83333333333333
      0.83333333333333      0.33333333333333      0.83333333333333
      0.16666666666667      0.66666666666667      0.83333333333333
      0.50000000000000      0.66666666666667      0.83333333333333
      0.83333333333333      0.66666666666667      0.83333333333333
      0.25000000000000      0.08333333333333      0.25000000000000
      0.58333333333333      0.08333333333333      0.25000000000000
      0.91666666666667      0.08333333333333      0.25000000000000
      0.25000000000000      0.41666666666667      0.25000000000000
      0.58333333333333      0.41666666666667      0.25000000000000
      0.91666666666667      0.41666666666667      0.25000000000000
      0.25000000000000      0.75000000000000      0.25000000000000
      0.58333333333333      0.75000000000000      0.25000000000000
      0.91666666666667      0.75000000000000      0.25000000000000
      0.25000000000000      0.08333333333333      0.58333333333333
      0.58333333333333      0.08333333333333      0.58333333333333
      0.91666666666667      0.08333333333333      0.58333333333333
      0.25000000000000      0.41666666666667      0.58333333333333
      0.58333333333333      0.41666666666667      0.58333333333333
      0.91666666666667      0.41666666666667      0.58333333333333
      0.25000000000000      0.75000000000000      0.58333333333333
      0.58333333333333      0.75000000000000      0.58333333333333
      0.91666666666667      0.75000000000000      0.58333333333333
      0.25000000000000      0.08333333333333      0.91666666666667
      0.58333333333333      0.08333333333333      0.91666666666667
      0.91666666666667      0.08333333333333      0.91666666666667
      0.25000000000000      0.41666666666667      0.91666666666667
      0.58333333333333      0.41666666666667      0.91666666666667
      0.91666666666667      0.41666666666667      0.91666666666667
      0.25000000000000      0.75000000000000      0.91666666666667
      0.58333333333333      0.75000000000000      0.91666666666667
      0.91666666666667      0.75000000000000      0.91666666666667
      0.08333333333333      0.08333333333333      0.08333333333333
      0.41666666666667      0.08333333333333      0.08333333333333
      0.75000000000000      0.08333333333333      0.08333333333333
      0.08333333333333      0.41666666666667      0.08333333333333
      0.41666666666667      0.41666666666667      0.08333333333333
      0.75000000000000      0.41666666666667      0.08333333333333
      0.08333333333333      0.75000000000000      0.08333333333333
      0.41666666666667      0.75000000000000      0.08333333333333
      0.75000000000000      0.75000000000000      0.08333333333333
      0.08333333333333      0.08333333333333      0.41666666666667
      0.41666666666667      0.08333333333333      0.41666666666667
      0.75000000000000      0.08333333333333      0.41666666666667
      0.08333333333333      0.41666666666667      0.41666666666667
      0.41666666666667      0.41666666666667      0.41666666666667
      0.75000000000000      0.41666666666667      0.41666666666667
      0.08333333333333      0.75000000000000      0.41666666666667
      0.41666666666667      0.75000000000000      0.41666666666667
      0.75000000000000      0.75000000000000      0.41666666666667
      0.08333333333333      0.08333333333333      0.75000000000000
      0.41666666666667      0.08333333333333      0.75000000000000
      0.75000000000000      0.08333333333333      0.75000000000000
      0.08333333333333      0.41666666666667      0.75000000000000
      0.41666666666667      0.41666666666667      0.75000000000000
      0.75000000000000      0.41666666666667      0.75000000000000
      0.08333333333333      0.75000000000000      0.75000000000000
      0.41666666666667      0.75000000000000      0.75000000000000
      0.75000000000000      0.75000000000000      0.75000000000000
      0.08333333333333      0.25000000000000      0.25000000000000
      0.41666666666667      0.25000000000000      0.25000000000000
      0.75000000000000      0.25000000000000      0.25000000000000
      0.08333333333333      0.58333333333333      0.25000000000000
      0.41666666666667      0.58333333333333      0.25000000000000
      0.75000000000000      0.58333333333333      0.25000000000000
      0.08333333333333      0.91666666666667      0.25000000000000
      0.41666666666667      0.91666666666667      0.25000000000000
      0.75000000000000      0.91666666666667      0.25000000000000
      0.08333333333333      0.25000000000000      0.58333333333333
      0.41666666666667      0.25000000000000      0.58333333333333
      0.75000000000000      0.25000000000000      0.58333333333333
      0.08333333333333      0.58333333333333      0.58333333333333
      0.41666666666667      0.58333333333333      0.58333333333333
      0.75000000000000      0.58333333333333      0.58333333333333
      0.08333333333333      0.91666666666667      0.58333333333333
      0.41666666666667      0.91666666666667      0.58333333333333
      0.75000000000000      0.91666666666667      0.58333333333333
      0.08333333333333      0.25000000000000      0.91666666666667
      0.41666666666667      0.25000000000000      0.91666666666667
      0.75000000000000      0.25000000000000      0.91666666666667
      0.08333333333333      0.58333333333333      0.91666666666667
      0.41666666666667      0.58333333333333      0.91666666666667
      0.75000000000000      0.58333333333333      0.91666666666667
      0.08333333333333      0.91666666666667      0.91666666666667
      0.41666666666667      0.91666666666667      0.91666666666667
      0.75000000000000      0.91666666666667      0.91666666666667
      0.25000000000000      0.25000000000000      0.08333333333333
      0.58333333333333      0.25000000000000      0.08333333333333
      0.91666666666667      0.25000000000000      0.08333333333333
      0.25000000000000      0.58333333333333      0.08333333333333
      0.58333333333333      0.58333333333333      0.08333333333333
      0.91666666666667      0.58333333333333      0.08333333333333
      0.25000000000000      0.91666666666667      0.08333333333333
      0.58333333333333      0.91666666666667      0.08333333333333
      0.91666666666667      0.91666666666667      0.08333333333333
      0.25000000000000      0.25000000000000      0.41666666666667
      0.58333333333333      0.25000000000000      0.41666666666667
      0.91666666666667      0.25000000000000      0.41666666666667
      0.25000000000000      0.58333333333333      0.41666666666667
      0.58333333333333      0.58333333333333      0.41666666666667
      0.91666666666667      0.58333333333333      0.41666666666667
      0.25000000000000      0.91666666666667      0.41666666666667
      0.58333333333333      0.91666666666667      0.41666666666667
      0.91666666666667      0.91666666666667      0.41666666666667
      0.25000000000000      0.25000000000000      0.75000000000000
      0.58333333333333      0.25000000000000      0.75000000000000
      0.91666666666667      0.25000000000000      0.75000000000000
      0.25000000000000      0.58333333333333      0.75000000000000
      0.58333333333333      0.58333333333333      0.75000000000000
      0.91666666666667      0.58333333333333      0.75000000000000
      0.25000000000000      0.91666666666667      0.75000000000000
      0.58333333333333      0.91666666666667      0.75000000000000
      0.91666666666667      0.91666666666667      0.75000000000000
