PREC = Accurate
EDIFF = 1E-6
EDIFFG = -1E-3
ADDGRID = .TRUE.
LREAL = .FALSE.
ALGO = Normal
ISMEAR = 0
SIGMA = 0.05
NELM = 200
ISYM = 0
IBRION = 0
POTIM = 1.0
LWAVE = .FALSE.
LCHARG = .FALSE.
ML_LMLFF = .TRUE.
ML_MODE = train
ML_IALGO_LINREG = 4
ML_CX = 0.1
ML_MB = 8000
ML_MCONF_NEW = 1
ML_LBASIS_DISCARD = .FALSE.
ML_IWEIGHT = 3
ML_WTOTEN = 1.0
ML_WTIFOR = 1.0
ML_WTSIF = 4.0
ENCUT = 500
NSW = 30000
TEBEG = 300
TEEND = 1500
ML_ISTART = 0
ISIF = 3
MDALGO = 3
LANGEVIN_GAMMA = 10.0
LANGEVIN_GAMMA_L = 1.0
PMASS = 1000
PSTRESS = 0
